
Gurobi 9.5.1 (win64) logging started Wed May 18 18:48:48 2022

Set parameter LogFile to value "./Log/Direct_MIP_Sshape_solver_800_order_50_batch.log"
Gurobi Optimizer version 9.5.1 build v9.5.1rc2 (win64)
Thread count: 6 physical cores, 12 logical processors, using up to 12 threads
Optimize a model with 87700 rows, 124450 columns and 493300 nonzeros
Model fingerprint: 0xb4082acb
Model has 2350 quadratic constraints
Variable types: 0 continuous, 124450 integer (119650 binary)
Coefficient statistics:
  Matrix range     [1e+00, 5e+01]
  QMatrix range    [1e+00, 1e+00]
  QLMatrix range   [1e+00, 1e+00]
  Objective range  [4e-01, 4e+01]
  Bounds range     [1e+00, 1e+00]
  RHS range        [1e+00, 2e+01]
Presolve removed 38650 rows and 43150 columns
Presolve time: 1.00s
Presolved: 49050 rows, 81300 columns, 345200 nonzeros
Variable types: 0 continuous, 81300 integer (76650 binary)
Found heuristic solution: objective 18884.400000

Deterministic concurrent LP optimizer: primal and dual simplex
Showing first log only...


Use crossover to convert LP symmetric solution to basic solution...
Concurrent spin time: 0.00s

Solved with primal simplex

Root relaxation: objective 2.085500e+03, 44710 iterations, 3.34 seconds (6.05 work units)

    Nodes    |    Current Node    |     Objective Bounds      |     Work
 Expl Unexpl |  Obj  Depth IntInf | Incumbent    BestBd   Gap | It/Node Time

     0     0 2085.50000    0 11285 18884.4000 2085.50000  89.0%     -   34s
H    0     0                    18047.200000 2099.90000  88.4%     -   72s
H    0     0                    17773.200000 2099.90000  88.2%     -   72s
H    0     0                    17608.400000 2099.90000  88.1%     -   72s
H    0     0                    17476.800000 2099.90000  88.0%     -   72s
H    0     0                    17292.000000 2099.90000  87.9%     -   72s
H    0     0                    17185.200000 2099.90000  87.8%     -   72s
H    0     0                    17081.200000 2099.90000  87.7%     -   72s
     0     0 2805.70000    0 8422 17081.2000 2805.70000  83.6%     -   81s
H    0     0                    16938.000000 2805.70000  83.4%     -   83s
     0     0 2805.70000    0 8624 16938.0000 2805.70000  83.4%     -   88s
     0     0 2805.70000    0 8568 16938.0000 2805.70000  83.4%     -   89s
     0     0 2805.70000    0 8678 16938.0000 2805.70000  83.4%     -  103s
H    0     0                    16905.600000 3094.35029  81.7%     -  247s
H    0     0                    16609.600000 3094.35029  81.4%     -  247s
H    0     0                    16583.600000 3094.35029  81.3%     -  247s
H    0     0                    16580.400000 3094.35029  81.3%     -  247s
H    0     0                    16575.600000 3094.35029  81.3%     -  247s
H    0     0                    16569.600000 3094.35029  81.3%     -  247s
H    0     0                    16478.400000 3094.35029  81.2%     -  247s
H    0     0                    16457.200000 3094.35029  81.2%     -  247s
H    0     0                    16436.000000 3094.35029  81.2%     -  247s
H    0     0                    16397.600000 3094.35029  81.1%     -  247s
H    0     0                    16393.600000 3094.35029  81.1%     -  247s
H    0     0                    16392.000000 3094.35029  81.1%     -  247s
H    0     0                    16388.000000 3094.35029  81.1%     -  247s
H    0     0                    16386.800000 3094.35029  81.1%     -  247s
H    0     0                    16385.200000 3094.35029  81.1%     -  247s
H    0     0                    16384.400000 3094.35029  81.1%     -  247s
H    0     0                    16381.200000 3094.35029  81.1%     -  247s
H    0     0                    16379.200000 3094.35029  81.1%     -  247s
H    0     0                    16377.600000 3094.35029  81.1%     -  247s
H    0     0                    16375.600000 3094.35029  81.1%     -  247s
H    0     0                    16338.400000 3094.35029  81.1%     -  247s
H    0     0                    16335.200000 3094.35029  81.1%     -  247s
H    0     0                    16332.800000 3094.35029  81.1%     -  247s
H    0     0                    16326.800000 3094.35029  81.0%     -  247s
H    0     0                    16308.400000 3094.35029  81.0%     -  247s
H    0     0                    16305.600000 3094.35029  81.0%     -  247s
H    0     0                    16288.000000 3094.35029  81.0%     -  247s
H    0     0                    16280.400000 3094.35029  81.0%     -  247s
H    0     0                    16274.000000 3094.35029  81.0%     -  247s
H    0     0                    16238.800000 3094.35029  80.9%     -  247s
H    0     0                    16234.000000 3094.35029  80.9%     -  247s
H    0     0                    16181.200000 3094.35029  80.9%     -  247s
H    0     0                    16171.600000 3094.35029  80.9%     -  247s
H    0     0                    16118.000000 3094.35029  80.8%     -  247s
H    0     0                    16115.600000 3094.35029  80.8%     -  247s
H    0     0                    16110.000000 3094.35029  80.8%     -  247s
H    0     0                    16097.200000 3094.35029  80.8%     -  247s
H    0     0                    16088.800000 3094.35029  80.8%     -  247s
H    0     0                    15977.200000 3094.35029  80.6%     -  247s
     0     0 3842.92815    0 11668 15977.2000 3842.92815  75.9%     -  248s
H    0     0                    15968.400000 3842.92815  75.9%     -  293s
H    0     0                    15952.000000 3842.92815  75.9%     -  293s
H    0     0                    15948.800000 3842.92815  75.9%     -  293s
H    0     0                    15942.800000 3842.92815  75.9%     -  293s
H    0     0                    15876.400000 3842.92815  75.8%     -  293s
H    0     0                    15826.400000 3842.92815  75.7%     -  293s
H    0     0                    15812.000000 3842.92815  75.7%     -  293s
H    0     0                    15811.600000 3842.92815  75.7%     -  294s
H    0     0                    15810.800000 3842.92815  75.7%     -  294s
     0     0 4090.47500    0 11498 15810.8000 4090.47500  74.1%     -  295s
H    0     0                    15784.000000 4103.27988  74.0%     -  329s
H    0     0                    15773.200000 4103.27988  74.0%     -  329s
H    0     0                    15740.800000 4103.27988  73.9%     -  329s
H    0     0                    15739.600000 4103.27988  73.9%     -  329s
H    0     0                    15708.400000 4103.27988  73.9%     -  329s
H    0     0                    15656.000000 4103.27988  73.8%     -  329s
H    0     0                    15654.000000 4103.27988  73.8%     -  329s
     0     0 4103.27988    0 11580 15654.0000 4103.27988  73.8%     -  330s
H    0     0                    15621.200000 4194.23865  73.2%     -  353s
H    0     0                    15598.800000 4194.23865  73.1%     -  353s
H    0     0                    15590.400000 4194.23865  73.1%     -  353s
H    0     0                    15574.800000 4194.23865  73.1%     -  353s
H    0     0                    15558.400000 4194.23865  73.0%     -  353s
H    0     0                    15534.000000 4194.23865  73.0%     -  353s
     0     0 4194.23865    0 11585 15534.0000 4194.23865  73.0%     -  354s
H    0     0                    15533.200000 4220.45040  72.8%     -  390s
H    0     0                    15532.800000 4220.45040  72.8%     -  390s
H    0     0                    15518.400000 4220.45040  72.8%     -  390s
H    0     0                    15510.000000 4220.45040  72.8%     -  390s
H    0     0                    15508.800000 4220.45040  72.8%     -  390s
H    0     0                    15499.600000 4220.45040  72.8%     -  390s
     0     0 4220.45040    0 11712 15499.6000 4220.45040  72.8%     -  391s
H    0     0                    15498.400000 4229.43455  72.7%     -  427s
H    0     0                    15496.800000 4229.43455  72.7%     -  427s
H    0     0                    15480.000000 4229.43455  72.7%     -  427s
H    0     0                    15478.400000 4229.43455  72.7%     -  427s
H    0     0                    15477.600000 4229.43455  72.7%     -  427s
H    0     0                    15470.000000 4229.43455  72.7%     -  427s
H    0     0                    15376.800000 4229.43455  72.5%     -  427s
     0     0 4229.43455    0 11626 15376.8000 4229.43455  72.5%     -  428s
H    0     0                    15298.800000 4230.17559  72.3%     -  460s
H    0     0                    15269.600000 4230.17559  72.3%     -  460s
H    0     0                    15259.200000 4230.17559  72.3%     -  460s
H    0     0                    15225.200000 4230.17559  72.2%     -  460s
H    0     0                    15175.200000 4230.17559  72.1%     -  460s
H    0     0                    15160.400000 4230.17559  72.1%     -  460s
H    0     0                    15154.800000 4230.17559  72.1%     -  460s
H    0     0                    15124.400000 4230.17559  72.0%     -  460s
H    0     0                    15098.400000 4230.17559  72.0%     -  460s
H    0     0                    15054.000000 4230.17559  71.9%     -  460s
H    0     0                    15038.400000 4230.17559  71.9%     -  460s
H    0     0                    15007.600000 4230.17559  71.8%     -  460s
     0     0 4230.17559    0 11689 15007.6000 4230.17559  71.8%     -  461s
H    0     0                    14989.200000 4230.79002  71.8%     -  502s
H    0     0                    14986.000000 4230.79002  71.8%     -  502s
H    0     0                    14974.000000 4230.79002  71.7%     -  502s
     0     0 4376.25435    0 11726 14974.0000 4376.25435  70.8%     -  503s
     0     0 4376.25435    0 11785 14974.0000 4376.25435  70.8%     -  518s
     0     0 4376.38682    0 11801 14974.0000 4376.38682  70.8%     -  569s
     0     0 4376.38682    0 11632 14974.0000 4376.38682  70.8%     -  577s
     0     0 4376.38682    0 11525 14974.0000 4376.38682  70.8%     -  591s
     0     0 4376.38682    0 11449 14974.0000 4376.38682  70.8%     -  591s
     0     0 4718.28376    0 11730 14974.0000 4718.28376  68.5%     -  703s
H    0     0                    14910.000000 4718.28376  68.4%     -  710s
     0     0 5128.99567    0 12163 14910.0000 5128.99567  65.6%     -  936s
     0     0 5332.92286    0 11762 14910.0000 5332.92286  64.2%     -  975s
     0     0          -    0      14910.0000 5332.92286  64.2%     - 1000s

Cutting planes:
  Learned: 84
  Cover: 4422
  Implied bound: 154
  Clique: 1512
  MIR: 645
  StrongCG: 181
  Flow cover: 753
  Zero half: 2862
  Network: 46
  RLT: 1199
  Relax-and-lift: 1290
  PSD: 50

Explored 1 nodes (700086 simplex iterations) in 1000.12 seconds (1010.79 work units)
Thread count was 12 (of 12 available processors)

Solution count 10: 14910 14974 14986 ... 15154.8

Time limit reached
Best objective 1.491000000000e+04, best bound 5.333200000000e+03, gap 64.2307%
